NAME : n60w140.004.578.tour
COMMENT : Length = 578
COMMENT : Found by LKH [Keld Helsgaun] Tue May  2 05:47:33 2017
TYPE : TOUR
DIMENSION : 61
TOUR_SECTION
1
4
56
11
51
9
39
27
14
25
13
10
33
32
36
28
24
30
50
54
42
6
16
5
60
58
22
40
23
44
18
8
55
38
20
15
52
31
21
45
49
3
12
43
48
2
19
34
47
53
17
35
37
29
26
41
61
59
57
46
7
-1
EOF
